# Solution for model r10_t36_m6_4 Batch Number: 2
# Finished Task: 36 / 36
# Makespan: 492.0, Total Distance: 382.0, Total Time: 17.0730
# R O S F Batch
0 0 15 0.0 0.0 -1
1 1 10 0.0 0.0 -1
2 2 18 0.0 0.0 -1
3 3 21 0.0 0.0 -1
4 4 31 0.0 0.0 -1
5 5 36 0.0 0.0 -1
6 6 22 0.0 0.0 -1
7 7 -1 0.0 0.0 -1
8 8 37 0.0 0.0 -1
9 9 16 0.0 0.0 -1
10 1 38 56.0 83.0 0
11 6 20 387.0 417.0 0
12 4 34 316.0 344.0 1
13 0 -1 453.0 492.0 1
14 3 45 245.0 284.0 0
15 0 28 302.0 340.0 0
16 9 43 373.0 394.0 0
17 6 11 329.0 358.0 0
18 2 39 136.0 158.0 0
19 3 14 141.0 180.0 0
20 6 -1 426.0 465.0 1
21 3 19 109.0 133.0 0
22 6 26 198.0 233.0 0
23 8 35 306.0 335.0 1
24 5 -1 379.0 417.0 0
25 4 33 407.0 440.0 1
26 6 32 247.0 268.0 0
27 3 30 391.0 426.0 1
28 0 42 354.0 384.0 0
29 8 41 157.0 182.0 0
30 3 -1 463.0 492.0 1
31 4 12 236.0 259.0 0
32 6 17 278.0 315.0 0
33 4 -1 453.0 492.0 1
34 4 25 354.0 380.0 1
35 8 40 344.0 378.0 1
36 5 24 33.0 72.0 0
37 8 29 74.0 105.0 0
38 1 44 147.0 169.0 0
39 2 -1 346.0 368.0 1
40 8 -1 465.0 492.0 1
41 8 23 182.0 214.0 0
42 0 13 384.0 422.0 1
43 9 -1 394.0 421.0 1
44 1 -1 384.0 423.0 1
45 3 27 365.0 391.0 1
